9992 6512 500 499 498 497 496 495 494 493 491 489 487 486 485 484 478 477 476 475 474 473 472 471 470 469 467 466 465 464 463 462 460 459 457 456 455 454 453 450 448 446 445 444 443 442 440 439 438 437 433 432 430 429 428 427 426 423 422 418 417 415 414 413 412 411 409 408 406 405 404 403 402 400 399 398 397 396 395 393 392 391 390 389 387 386 384 382 381 379 377 376 375 373 372 369 367 366 365 364 363 362 360 359 358 357 355 353 352 351 350 349 347 346 345 344 343 342 341 339 338 336 335 334 332 331 330 329 328 327 326 324 323 322 320 318 317 316 314 313 312 311 310 309 308 305 304 303 299 296 295 293 292 290 289 286 285 284 283 282 281 279 276 275 274 272 270 269 268 267 263 260 259 257 255 254 252 249 248 245 243 242 240 238 237 236 234 233 231 230 228 225 224 223 222 220 218 217 215 212 211 210 209 208 207 205 204 203 201 200 199 197 195 194 192 191 189 185 184 181 180 178 177 175 173 172 171 170 169 167 166 165 163 162 161 159 158 155 154 152 151 150 149 147 146 145 144 143 142 141 140 138 137 136 133 132 131 130 127 125 123 121 120 119 118 117 116 113 111 110 108 107 106 105 104 103 101 100 99 98 96 95 94 93 88 87 86 84 82 81 80 79 78 77 75 73 72 71 70 68 67 65 64 63 60 59 58 57 56 55 54 53 52 51 50 49 48 46 45 44 43 42 41 40 39 38 37 35 34 32 31 29 28 26 25 24 23 21 17 16 15 14 13 10 8 7 6 5 4 3 